Reading model...
...model read.
creating competitive generators file...
...competitive generators recorded.
Loading data...
.. real-time data read.
Compiling instance...
...instance created.
Creating Offer Mitigation (model will solve as dispatch if TRUE)...
...storage offer mitigation file created
Converting model to MPEC...
...converted
NOTE: initial MIP solve with only storage competitive to get feasible solution
Solving...

Welcome to IBM(R) ILOG(R) CPLEX(R) Interactive Optimizer 12.9.0.0
  with Simplex, Mixed Integer & Barrier Optimizers
5725-A06 5725-A29 5724-Y48 5724-Y49 5724-Y54 5724-Y55 5655-Y21
Copyright IBM Corp. 1988, 2019.  All Rights Reserved.

Type 'help' for a list of available commands.
Type 'help' followed by a command name for more
information on commands.

CPLEX> Logfile 'cplex.log' closed.
Logfile 'C:\Users\llavin\Desktop\test826\logs\tmpnw1s_cjo.cplex.log' open.
CPLEX> New value for parallel optimization mode: -1
CPLEX> New value for mixed integer optimality gap tolerance: 0.01
CPLEX> New value for feasibility tolerance: 1e-09
CPLEX> New value for deterministic time limit in ticks: 100000
CPLEX> Problem 'C:\Users\llavin\Desktop\test826\logs\tmpl_zdhitt.pyomo.lp' read.
Read time = 0.52 sec. (28.52 ticks)
CPLEX> Problem name         : C:\Users\llavin\Desktop\test826\logs\tmpl_zdhitt.pyomo.lp
Objective sense      : Maximize
Variables            :  107781  [Nneg: 1,  Box: 44056,  Free: 8928,
                                 Binary: 54796]
Objective nonzeros   :   17555
Linear constraints   :  246901  [Less: 82866,  Greater: 118424,  Equal: 45611]
  Nonzeros           :  618255
  RHS nonzeros       :  135061

Variables            : Min LB: -5000.000        Max UB: 1000000.       
Objective nonzeros   : Min   : 0.008333333      Max   : 3000.000       
Linear constraints   :
  Nonzeros           : Min   : 0.008333333      Max   : 1000000.       
  RHS nonzeros       : Min   : 0.008333333      Max   : 1000000.       
CPLEX> CPXPARAM_Parallel                                -1
CPXPARAM_Simplex_Tolerances_Feasibility          1.0000000000000001e-09
CPXPARAM_DetTimeLimit                            100000
CPXPARAM_MIP_Tolerances_MIPGap                   0.01
Tried aggregator 3 times.
MIP Presolve eliminated 180481 rows and 40659 columns.
MIP Presolve added 6226 rows and 0 columns.
MIP Presolve modified 51157 coefficients.
Aggregator did 25919 substitutions.
Reduced MIP has 46727 rows, 39705 columns, and 156992 nonzeros.
Reduced MIP has 15654 binaries, 0 generals, 0 SOSs, and 0 indicators.
Presolve time = 0.61 sec. (378.57 ticks)
Probing fixed 792 vars, tightened 8954 bounds.
Probing time = 0.36 sec. (15.18 ticks)
Tried aggregator 2 times.
MIP Presolve eliminated 1778 rows and 1585 columns.
MIP Presolve modified 5537 coefficients.
Aggregator did 48 substitutions.
Reduced MIP has 44901 rows, 38072 columns, and 151702 nonzeros.
Reduced MIP has 14862 binaries, 0 generals, 0 SOSs, and 0 indicators.
Presolve time = 0.25 sec. (229.80 ticks)
Probing fixed 1 vars, tightened 414 bounds.
Probing time = 0.50 sec. (18.95 ticks)
Clique table members: 87845.
MIP emphasis: balance optimality and feasibility.
MIP search method: dynamic search.
Parallel mode: opportunistic, using up to 32 threads.
Root relaxation solution time = 0.97 sec. (1798.95 ticks)

        Nodes                                         Cuts/
   Node  Left     Objective  IInf  Best Integer    Best Bound    ItCnt     Gap

      0     0        0.0000     2                      0.0000     8258         
*     0+    0                            0.0000        0.0000             0.00%
      0     0        cutoff              0.0000        0.0000     8258    0.00%
Elapsed time = 3.44 sec. (2936.21 ticks, tree = 0.01 MB, solutions = 1)

Root node processing (before b&c):
  Real time             =    3.47 sec. (2940.11 ticks)
Parallel b&c, 32 threads:
  Real time             =    0.00 sec. (0.00 ticks)
  Sync time (average)   =    0.00 sec.
  Wait time (average)   =    0.00 sec.
                          ------------
Total (root+branch&cut) =    3.47 sec. (2940.11 ticks)

Solution pool: 1 solution saved.

MIP - Integer optimal solution:  Objective =  0.0000000000e+00
Solution time =    3.48 sec.  Iterations = 8258  Nodes = 0
Deterministic time = 2940.42 ticks  (843.74 ticks/sec)

CPLEX> Incumbent solution written to file 'C:\Users\llavin\Desktop\test826\logs\tmps2h4cu3o.cplex.sol'.
CPLEX> NOTE: no warmstart specified for MIP iteration, default behavior is true
NOTE: resolving with all competitive generators using storage-only solution to warmstart
Solving...

Welcome to IBM(R) ILOG(R) CPLEX(R) Interactive Optimizer 12.9.0.0
  with Simplex, Mixed Integer & Barrier Optimizers
5725-A06 5725-A29 5724-Y48 5724-Y49 5724-Y54 5724-Y55 5655-Y21
Copyright IBM Corp. 1988, 2019.  All Rights Reserved.

Type 'help' for a list of available commands.
Type 'help' followed by a command name for more
information on commands.

CPLEX> Logfile 'cplex.log' closed.
Logfile 'C:\Users\llavin\Desktop\test826\logs\tmpvl2prmmn.cplex.log' open.
CPLEX> New value for parallel optimization mode: -1
CPLEX> New value for mixed integer optimality gap tolerance: 0.01
CPLEX> New value for feasibility tolerance: 1e-09
CPLEX> New value for deterministic time limit in ticks: 100000
CPLEX> Problem 'C:\Users\llavin\Desktop\test826\logs\tmp__og3lmb.pyomo.lp' read.
Read time = 0.55 sec. (28.57 ticks)
CPLEX> MIP start file 'C:\Users\llavin\Desktop\test826\logs\tmp1h3j_83a.cplex.mst' read.
CPLEX> Problem name         : C:\Users\llavin\Desktop\test826\logs\tmp__og3lmb.pyomo.lp
Objective sense      : Maximize
Variables            :  109221  [Nneg: 1,  Box: 45496,  Free: 8928,
                                 Binary: 54796]
Objective nonzeros   :   18947
Linear constraints   :  246901  [Less: 82866,  Greater: 118424,  Equal: 45611]
  Nonzeros           :  618255
  RHS nonzeros       :  135061

Variables            : Min LB: -5000.000        Max UB: 1000000.       
Objective nonzeros   : Min   : 0.008333333      Max   : 3000.000       
Linear constraints   :
  Nonzeros           : Min   : 0.008333333      Max   : 1000000.       
  RHS nonzeros       : Min   : 0.008333333      Max   : 1000000.       
CPLEX> CPXPARAM_Parallel                                -1
CPXPARAM_Simplex_Tolerances_Feasibility          1.0000000000000001e-09
CPXPARAM_DetTimeLimit                            100000
CPXPARAM_MIP_Tolerances_MIPGap                   0.01
1 of 1 MIP starts provided solutions.
MIP start 'm1' defined initial solution with objective 0.0000.
Tried aggregator 3 times.
MIP Presolve eliminated 180481 rows and 42099 columns.
MIP Presolve added 6226 rows and 0 columns.
MIP Presolve modified 51157 coefficients.
Aggregator did 25919 substitutions.
Reduced MIP has 46727 rows, 39705 columns, and 156992 nonzeros.
Reduced MIP has 15654 binaries, 0 generals, 0 SOSs, and 0 indicators.
Presolve time = 0.64 sec. (379.28 ticks)
Probing fixed 792 vars, tightened 8954 bounds.
Probing time = 0.39 sec. (15.18 ticks)
Tried aggregator 2 times.
MIP Presolve eliminated 1778 rows and 1585 columns.
MIP Presolve modified 5537 coefficients.
Aggregator did 48 substitutions.
Reduced MIP has 44901 rows, 38072 columns, and 151702 nonzeros.
Reduced MIP has 14862 binaries, 0 generals, 0 SOSs, and 0 indicators.
Presolve time = 0.25 sec. (229.81 ticks)
Probing fixed 1 vars, tightened 421 bounds.
Probing time = 0.55 sec. (18.99 ticks)
Clique table members: 87840.
MIP emphasis: balance optimality and feasibility.
MIP search method: dynamic search.
Parallel mode: opportunistic, using up to 32 threads.
Root relaxation solution time = 1.38 sec. (1965.80 ticks)

        Nodes                                         Cuts/
   Node  Left     Objective  IInf  Best Integer    Best Bound    ItCnt     Gap

*     0+    0                            0.0000   1.03852e+07              --- 
      0     0    20682.4535   504        0.0000    20682.4535    10852     --- 
      0     0    19090.6374   380        0.0000     Cuts: 383    11458     --- 
      0     0    19089.2716   385        0.0000     Cuts: 374    11640     --- 
      0     0    19089.2716   409        0.0000     Cuts: 308    11787     --- 
      0     0    19089.2716   242        0.0000     Cuts: 252    11822     --- 
      0     0    19089.2716   240        0.0000      Cuts: 20    11867     --- 
      0    12    infeasible              0.0000      Cuts: 21    12096     --- 
Elapsed time = 11.39 sec. (6850.20 ticks, tree = 0.02 MB, solutions = 1)
     86     9    18302.8697   186        0.0000    19056.3877    11935     --- 
    284    51    15081.0090   160        0.0000    19056.3877    13357     --- 
    595   198    11815.9628   122        0.0000    19056.3877    21061     --- 
    950   544    infeasible              0.0000    19056.3877    25890     --- 
   1277   440     8567.4787    77        0.0000    19056.3877    24430     --- 
   1551   661     4949.9961    69        0.0000    19056.3877    29049     --- 
   1773   911     4211.2604    33        0.0000    19056.3877    36553     --- 
   2033   926     1530.7710    15        0.0000    19056.3877    37818     --- 
   2355  1032        cutoff              0.0000    19056.3877    42210     --- 
   3660  1228     2077.1526    37        0.0000    16079.7035    63428     --- 
Elapsed time = 32.50 sec. (9958.23 ticks, tree = 15.05 MB, solutions = 1)
   4950  2449      360.0494    17        0.0000    15787.2229   109510     --- 
   6264  2498      268.9326    19        0.0000    11012.9192   111848     --- 
   7563  3449        cutoff              0.0000    10701.6204   155891     --- 
   8245  3610        cutoff              0.0000    10701.6204   164078     --- 
   8313  3994        cutoff             -0.0000      798.5950   192220     --- 

Cover cuts applied:  3
Implied bound cuts applied:  39
Flow cuts applied:  218
Mixed integer rounding cuts applied:  28
Gomory fractional cuts applied:  8

Root node processing (before b&c):
  Real time             =    8.95 sec. (6829.05 ticks)
Parallel b&c, 32 threads:
  Real time             =   56.25 sec. (15987.70 ticks)
  Sync time (average)   =    3.10 sec.
  Wait time (average)   =    0.36 sec.
                          ------------
Total (root+branch&cut) =   65.20 sec. (22816.75 ticks)

Solution pool: 1 solution saved.

MIP - Integer optimal solution:  Objective =  0.0000000000e+00
Solution time =   65.22 sec.  Iterations = 192250  Nodes = 8322
Deterministic time = 22817.06 ticks  (349.85 ticks/sec)

CPLEX> Incumbent solution written to file 'C:\Users\llavin\Desktop\test826\logs\tmp4v_nr_6r.cplex.sol'.
CPLEX> Exporting results... 
